benchmarks_CP/INST_36x36/20/inst36x36_20_26.dzn
S=6;
start=[|
-1,	-1,	-1,	31,	-1,	-1,	-1,	14,	-1,	-1,	-1,	-1,	-1,	-1,	-1,	-1,	-1,	-1,	26,	-1,	-1,	-1,	-1,	-1,	23,	-1,	-1,	25,	24,	-1,	8,	-1,	-1,	-1,	-1,	34|
-1,	9,	-1,	29,	19,	-1,	-1,	-1,	17,	-1,	-1,	3,	-1,	-1,	-1,	-1,	-1,	-1,	-1,	-1,	-1,	-1,	-1,	15,	-1,	-1,	-1,	-1,	-1,	26,	-1,	-1,	-1,	21,	23,	36|
28,	-1,	12,	-1,	-1,	-1,	-1,	-1,	-1,	31,	-1,	-1,	-1,	-1,	-1,	-1,	19,	-1,	-1,	-1,	-1,	-1,	-1,	-1,	-1,	-1,	-1,	18,	-1,	-1,	-1,	-1,	-1,	-1,	-1,	-1|
-1,	-1,	-1,	5,	-1,	18,	-1,	-1,	-1,	-1,	27,	25,	-1,	-1,	-1,	-1,	-1,	-1,	20,	-1,	-1,	-1,	-1,	23,	-1,	-1,	-1,	-1,	-1,	-1,	-1,	-1,	-1,	-1,	-1,	-1|
-1,	-1,	-1,	-1,	4,	-1,	-1,	-1,	-1,	20,	-1,	-1,	-1,	-1,	-1,	-1,	-1,	-1,	28,	-1,	-1,	-1,	-1,	-1,	27,	-1,	-1,	-1,	-1,	-1,	-1,	-1,	-1,	-1,	-1,	16|
26,	6,	-1,	-1,	11,	-1,	-1,	-1,	12,	-1,	-1,	-1,	-1,	-1,	-1,	-1,	21,	-1,	-1,	-1,	-1,	-1,	-1,	-1,	-1,	33,	-1,	-1,	19,	3,	-1,	-1,	9,	31,	-1,	-1|
-1,	-1,	-1,	-1,	-1,	31,	-1,	-1,	-1,	6,	-1,	-1,	30,	-1,	-1,	12,	-1,	-1,	13,	-1,	-1,	-1,	-1,	-1,	-1,	-1,	35,	-1,	-1,	-1,	10,	-1,	-1,	-1,	-1,	-1|
-1,	-1,	34,	-1,	24,	-1,	7,	-1,	-1,	8,	-1,	-1,	-1,	-1,	-1,	-1,	-1,	-1,	-1,	-1,	-1,	-1,	-1,	-1,	-1,	-1,	-1,	-1,	20,	-1,	-1,	2,	-1,	28,	-1,	21|
30,	-1,	-1,	-1,	-1,	-1,	-1,	-1,	-1,	-1,	-1,	13,	-1,	-1,	-1,	-1,	-1,	-1,	21,	-1,	-1,	-1,	-1,	-1,	-1,	-1,	-1,	-1,	28,	7,	1,	-1,	22,	-1,	-1,	-1|
-1,	-1,	-1,	-1,	-1,	-1,	-1,	25,	-1,	-1,	-1,	-1,	-1,	29,	-1,	-1,	-1,	-1,	35,	-1,	-1,	-1,	24,	-1,	6,	-1,	-1,	27,	8,	-1,	14,	11,	-1,	4,	-1,	-1|
-1,	-1,	35,	-1,	-1,	-1,	2,	-1,	20,	-1,	16,	-1,	-1,	-1,	-1,	-1,	-1,	3,	-1,	-1,	-1,	-1,	-1,	8,	-1,	24,	19,	-1,	-1,	-1,	13,	30,	-1,	26,	-1,	-1|
8,	-1,	13,	-1,	26,	-1,	-1,	-1,	21,	-1,	-1,	-1,	9,	-1,	-1,	-1,	-1,	-1,	-1,	-1,	-1,	-1,	-1,	-1,	-1,	36,	12,	-1,	-1,	-1,	-1,	-1,	-1,	-1,	-1,	-1|
-1,	-1,	31,	-1,	3,	-1,	34,	30,	27,	-1,	-1,	-1,	-1,	-1,	-1,	-1,	14,	-1,	5,	-1,	-1,	-1,	-1,	12,	-1,	-1,	-1,	-1,	-1,	-1,	-1,	-1,	-1,	-1,	10,	-1|
-1,	27,	-1,	-1,	-1,	-1,	-1,	-1,	-1,	15,	-1,	-1,	-1,	-1,	-1,	-1,	-1,	-1,	-1,	-1,	-1,	-1,	-1,	-1,	-1,	-1,	-1,	24,	26,	-1,	-1,	-1,	-1,	-1,	-1,	-1|
-1,	19,	-1,	20,	-1,	-1,	18,	-1,	32,	-1,	-1,	-1,	-1,	30,	-1,	-1,	29,	-1,	-1,	33,	-1,	-1,	-1,	10,	-1,	-1,	-1,	-1,	-1,	-1,	15,	-1,	23,	-1,	-1,	-1|
-1,	-1,	-1,	-1,	-1,	-1,	-1,	17,	-1,	-1,	-1,	-1,	31,	-1,	-1,	-1,	-1,	-1,	18,	-1,	-1,	-1,	-1,	-1,	-1,	-1,	-1,	-1,	-1,	-1,	-1,	-1,	-1,	7,	-1,	27|
-1,	25,	-1,	33,	-1,	-1,	-1,	-1,	-1,	-1,	-1,	-1,	-1,	-1,	-1,	35,	-1,	-1,	-1,	2,	-1,	-1,	-1,	-1,	-1,	-1,	-1,	-1,	-1,	-1,	16,	17,	-1,	-1,	36,	-1|
-1,	-1,	-1,	-1,	-1,	5,	-1,	-1,	-1,	-1,	26,	24,	-1,	-1,	-1,	-1,	-1,	-1,	-1,	-1,	-1,	-1,	-1,	13,	-1,	-1,	-1,	-1,	-1,	8,	-1,	-1,	-1,	-1,	-1,	-1|
-1,	7,	-1,	28,	-1,	-1,	9,	2,	-1,	-1,	-1,	-1,	-1,	5,	-1,	18,	17,	-1,	8,	-1,	13,	27,	-1,	-1,	-1,	-1,	22,	35,	-1,	25,	36,	21,	-1,	-1,	29,	23|
-1,	-1,	-1,	14,	-1,	-1,	-1,	-1,	-1,	33,	-1,	-1,	-1,	24,	-1,	-1,	-1,	-1,	-1,	-1,	-1,	-1,	-1,	-1,	-1,	-1,	30,	-1,	-1,	5,	-1,	-1,	-1,	35,	-1,	-1|
-1,	-1,	-1,	-1,	32,	-1,	-1,	-1,	7,	-1,	-1,	-1,	-1,	-1,	-1,	-1,	-1,	13,	-1,	18,	-1,	-1,	-1,	-1,	-1,	-1,	-1,	-1,	-1,	2,	-1,	-1,	-1,	-1,	34,	-1|
-1,	34,	-1,	-1,	-1,	-1,	-1,	-1,	-1,	-1,	-1,	17,	-1,	-1,	22,	-1,	-1,	-1,	-1,	-1,	-1,	-1,	-1,	-1,	1,	16,	14,	-1,	-1,	-1,	3,	-1,	-1,	-1,	-1,	-1|
6,	30,	-1,	-1,	16,	-1,	-1,	-1,	-1,	-1,	-1,	-1,	-1,	-1,	-1,	-1,	-1,	-1,	-1,	-1,	-1,	-1,	2,	-1,	-1,	-1,	8,	-1,	-1,	-1,	-1,	-1,	-1,	-1,	-1,	-1|
-1,	18,	25,	-1,	-1,	-1,	-1,	-1,	-1,	-1,	-1,	-1,	-1,	27,	-1,	-1,	9,	-1,	-1,	-1,	35,	-1,	-1,	-1,	-1,	-1,	36,	10,	7,	-1,	-1,	-1,	-1,	-1,	-1,	-1|
-1,	-1,	-1,	-1,	9,	-1,	16,	-1,	-1,	-1,	-1,	30,	-1,	10,	-1,	-1,	15,	-1,	-1,	-1,	33,	11,	-1,	-1,	35,	-1,	3,	-1,	-1,	-1,	-1,	-1,	-1,	-1,	-1,	-1|
-1,	-1,	-1,	-1,	23,	-1,	27,	-1,	24,	-1,	-1,	-1,	-1,	-1,	-1,	-1,	-1,	-1,	-1,	-1,	-1,	-1,	-1,	-1,	7,	-1,	-1,	36,	-1,	-1,	-1,	-1,	-1,	-1,	14,	-1|
-1,	-1,	-1,	-1,	-1,	-1,	-1,	-1,	-1,	34,	-1,	-1,	28,	-1,	-1,	-1,	3,	-1,	-1,	-1,	-1,	-1,	5,	-1,	-1,	-1,	-1,	-1,	-1,	-1,	-1,	23,	-1,	-1,	-1,	-1|
-1,	-1,	-1,	-1,	-1,	-1,	28,	-1,	-1,	-1,	5,	-1,	-1,	-1,	-1,	-1,	-1,	4,	-1,	-1,	7,	-1,	-1,	-1,	-1,	-1,	-1,	-1,	-1,	-1,	-1,	-1,	-1,	-1,	-1,	-1|
-1,	-1,	-1,	-1,	6,	-1,	12,	-1,	-1,	-1,	-1,	-1,	-1,	-1,	-1,	31,	-1,	-1,	-1,	-1,	-1,	-1,	-1,	-1,	-1,	-1,	-1,	-1,	5,	-1,	-1,	4,	-1,	-1,	-1,	-1|
-1,	-1,	33,	-1,	-1,	-1,	-1,	-1,	-1,	-1,	3,	-1,	13,	-1,	-1,	-1,	-1,	-1,	-1,	36,	-1,	2,	-1,	-1,	-1,	-1,	-1,	-1,	-1,	1,	-1,	5,	-1,	-1,	30,	-1|
17,	-1,	-1,	11,	-1,	-1,	-1,	-1,	23,	-1,	-1,	-1,	-1,	-1,	-1,	-1,	36,	-1,	-1,	-1,	-1,	-1,	-1,	7,	-1,	-1,	-1,	-1,	-1,	-1,	-1,	-1,	-1,	-1,	-1,	-1|
-1,	-1,	-1,	13,	-1,	-1,	-1,	15,	-1,	-1,	-1,	-1,	-1,	-1,	-1,	-1,	-1,	-1,	27,	-1,	4,	-1,	6,	-1,	-1,	-1,	-1,	-1,	29,	-1,	-1,	-1,	-1,	-1,	1,	-1|
-1,	-1,	-1,	-1,	-1,	-1,	-1,	8,	-1,	-1,	-1,	21,	-1,	31,	-1,	-1,	-1,	-1,	-1,	-1,	-1,	-1,	-1,	35,	-1,	-1,	-1,	-1,	-1,	-1,	-1,	-1,	-1,	-1,	13,	-1|
-1,	12,	-1,	-1,	-1,	1,	-1,	-1,	-1,	22,	-1,	-1,	4,	-1,	-1,	-1,	-1,	-1,	-1,	13,	-1,	-1,	-1,	-1,	-1,	28,	-1,	30,	-1,	-1,	-1,	-1,	-1,	-1,	-1,	24|
-1,	-1,	-1,	34,	-1,	-1,	-1,	-1,	-1,	-1,	-1,	-1,	-1,	-1,	-1,	-1,	-1,	-1,	-1,	-1,	-1,	-1,	-1,	-1,	-1,	-1,	-1,	-1,	-1,	27,	-1,	6,	-1,	-1,	17,	-1|
-1,	-1,	6,	7,	35,	-1,	36,	-1,	-1,	-1,	-1,	11,	14,	-1,	-1,	-1,	-1,	-1,	-1,	-1,	-1,	-1,	16,	-1,	25,	2,	-1,	-1,	-1,	-1,	28,	-1,	-1,	-1,	-1,	-1|];
